1 -1 2 0
1 3 4 0
1 5 -6 0
1 5 7 0
1 8 6 0
1 -8 9 0
1 -10 11 0
1 11 -12 0
1 -13 -14 0
1 14 15 0
1 16 13 0
1 17 -13 0
1 2 18 0
1 -12 19 0
1 12 3 0
1 -12 -18 0
1 -20 16 0
1 -20 21 0
1 -22 -23 0
1 23 22 0
1 15 -13 0
1 24 -14 0
1 24 25 0
1 -26 -18 0
1 -27 28 0
1 4 -29 0
1 4 30 0
1 31 32 0
1 -29 33 0
1 -32 31 0
1 -32 -34 0
1 32 -10 0
1 32 -8 0
1 35 -30 0
1 35 -36 0
1 35 -13 0
1 37 -5 0
1 37 -38 0
1 -28 -4 0
1 28 39 0
1 34 7 0
1 -34 32 0
1 40 -37 0
1 40 -41 0
1 -21 -42 0
1 6 -43 0
1 6 44 0
1 39 -45 0
1 -39 43 0
1 45 -46 0
1 -45 28 0
1 36 -45 0
1 36 -6 0
1 -36 37 0
1 36 47 0
1 -43 48 0
1 43 -49 0
1 43 -41 0
1 38 45 0
1 38 37 0
1 38 -43 0
1 -18 17 0
1 -18 -2 0
1 -50 46 0
1 50 24 0
1 51 -49 0
1 51 52 0
1 46 42 0
1 -46 -53 0
1 54 -5 0
1 -52 55 0
1 -52 -53 0
1 -52 50 0
1 -25 26 0
1 -56 -57 0
1 -58 59 0
1 60 -61 0
1 -62 25 0
1 59 -56 0
1 -63 -56 0
1 19 25 0
1 -64 65 0
1 66 -59 0
1 -61 64 0
1 -67 -64 0
1 67 -66 0
1 67 60 0
1 -41 40 0
1 49 -68 0
1 -69 -70 0
1 71 70 0
1 -71 -36 0
1 -71 72 0
1 73 -74 0
1 -70 73 0
1 -75 49 0
1 76 -48 0
1 55 19 0
1 -55 -48 0
1 55 -77 0
1 47 73 0
1 47 -36 0
1 -74 47 0
1 -74 72 0
1 48 -78 0
1 79 48 0
